\* Problem: SCRS8AQ *\

Minimize
 ROWOBJ: + 634.54094 COL00001 + 185.20865 COL00002 + 185.20865 COL00003
 + 105.4884 COL00004 + 12.07882 COL00005 + 20.13137 COL00006
 + 112.7357 COL00007 + 5305.3823 COL00011 + 241.5765 COL00028
 + 483.153 COL00029 + 748.88715 COL00030 + 990.46365 COL00031
 + 1215.93505 COL00032 + 1425.30135 COL00033 + 1610.51 COL00034
 + 1779.61355 COL00035 + 1924.55945 COL00036 + 2053.40025 COL00037
 + 95 COL00038 + 28.75 COL00039 + 28.75 COL00040 + 16.375 COL00041
 + 1.875 COL00042 + 3.125 COL00043 + 17.5 COL00044 + 823.55615 COL00048
 + 1048.0752 COL00049 + 37.5 COL00066 + 75 COL00067 + 116.25 COL00068
 + 153.75 COL00069 + 188.75 COL00070 + 221.25 COL00071 + 250 COL00072
 + 276.25 COL00073 + 298.75 COL00074 + 318.75 COL00075 + 95 COL00076
 + 28.75 COL00077 + 28.75 COL00078 + 16.375 COL00079 + 1.875 COL00080
 + 3.125 COL00081 + 17.5 COL00082 + 823.55615 COL00086
 + 1148.0752 COL00087 + 37.5 COL00104 + 75 COL00105 + 116.25 COL00106
 + 153.75 COL00107 + 188.75 COL00108 + 221.25 COL00109 + 250 COL00110
 + 276.25 COL00111 + 298.75 COL00112 + 318.75 COL00113 + 102 COL00114
 + 28.75 COL00115 + 28.75 COL00116 + 16.375 COL00117 + 1.875 COL00118
 + 3.125 COL00119 + 17.5 COL00120 + 823.55615 COL00124
 + 1048.0752 COL00125 + 37.5 COL00142 + 75 COL00143 + 116.25 COL00144
 + 153.75 COL00145 + 188.75 COL00146 + 221.25 COL00147 + 250 COL00148
 + 276.25 COL00149 + 298.75 COL00150 + 318.75 COL00151 + 102 COL00152
 + 28.75 COL00153 + 28.75 COL00154 + 16.375 COL00155 + 1.875 COL00156
 + 3.125 COL00157 + 17.5 COL00158 + 823.55615 COL00162
 + 1148.0752 COL00163 + 37.5 COL00180 + 75 COL00181 + 116.25 COL00182
 + 153.75 COL00183 + 188.75 COL00184 + 221.25 COL00185 + 250 COL00186
 + 276.25 COL00187 + 298.75 COL00188 + 318.75 COL00189

Subject To
 ROW00001: - COL00001 + 5 COL00011 = 0
 ROW00002: - COL00002 = 0
 ROW00003: - COL00003 = 0
 ROW00004: - COL00004 = 0
 ROW00005: - COL00005 + 5 COL00012 = 0
 ROW00006: - COL00006 + 5 COL00013 = 0
 ROW00007: - COL00007 = 0
 ROW00008: - COL00008 = 0
 ROW00009: - COL00009 + 5 COL00014 = 0
 ROW00010: + COL00001 + COL00002 + COL00003 + COL00004 - COL00008 >= 0
 ROW00011: + COL00005 + COL00006 + 22.5 COL00007 + 36 COL00008 >= 0
 ROW00012: + 0.0657 COL00001 + 0.00133 COL00006 - 0.2 COL00015
 = -0.01298
 ROW00013: + 0.001 COL00005 - 0.2 COL00016 = -0.044
 ROW00014: + 0.16 COL00010 - 0.2 COL00017 = 0
 ROW00015: + 0.16 COL00002 - COL00028 - COL00029 - COL00030 - COL00031
 - COL00032 - COL00033 - COL00034 - COL00035 - COL00036 - COL00037 <= 0
 ROW00016: + 0.11 COL00002 - COL00009 <= 0
 ROW00017: + 0.3 COL00007 + COL00010 <= 0
 ROW00018: + 0.7 COL00011 >= 0
 ROW00019: - COL00018 + 5 COL00028 = 0
 ROW00020: - COL00019 + 5 COL00029 = 0
 ROW00021: - COL00020 + 5 COL00030 = 0
 ROW00022: - COL00021 + 5 COL00031 = 0
 ROW00023: - COL00022 + 5 COL00032 = 0
 ROW00024: - COL00023 + 5 COL00033 = 0
 ROW00025: - COL00024 + 5 COL00034 = 0
 ROW00026: - COL00025 + 5 COL00035 = 0
 ROW00027: - COL00026 + 5 COL00036 = 0
 ROW00028: - COL00027 + 5 COL00037 = 0
 ROW00029: + 0.844 COL00001 - COL00038 + 5 COL00048 = 0
 ROW00030: + 0.844 COL00002 - COL00039 + 5 COL00049 = 0
 ROW00031: + 0.844 COL00003 - COL00040 = 0
 ROW00032: + 0.844 COL00004 - COL00041 = 0
 ROW00033: + 0.844 COL00005 - COL00042 + 5 COL00050 = 0
 ROW00034: + 0.844 COL00006 - COL00043 + 5 COL00051 = 0
 ROW00035: + 0.844 COL00007 - COL00044 = 0
 ROW00036: + 0.844 COL00008 - COL00045 = 0
 ROW00037: + 0.844 COL00009 - COL00046 + 5 COL00052 = 0
 ROW00038: + COL00038 + COL00039 + COL00040 + COL00041 - COL00045 >= 0.1
 ROW00039: + COL00042 + COL00043 + 22.5 COL00044 + 36 COL00045 >= 1.1911
 ROW00040: + 0.2 COL00015 + 0.0657 COL00038 + 0.0013 COL00043
 - 0.2 COL00053 = -0.013
 ROW00041: + 0.2 COL00016 + 0.001 COL00042 - 0.2 COL00054 = -0.04
 ROW00042: + 0.17 COL00002 + 0.062 COL00003 + 0.2 COL00017
 + 0.16 COL00047 - 0.2 COL00055 = 0
 ROW00043: - 0.016 COL00002 - 0.007 COL00007 + 0.16 COL00039
 + 0.5 COL00049 - COL00066 - COL00067 - COL00068 - COL00069 - COL00070
 - COL00071 - COL00072 - COL00073 - COL00074 - COL00075 <= 0
 ROW00044: - 0.007 COL00002 - 0.005 COL00007 + 0.11 COL00039 - COL00046
 + 0.23 COL00049 <= 0
 ROW00045: - COL00003 + 0.3 COL00044 + COL00047 <= 0
 ROW00046: + 0.7 COL00048 - 0.3 COL00049 >= 0
 ROW00047: + COL00018 - COL00056 + 5 COL00066 <= 1.5
 ROW00048: + COL00019 - COL00057 + 5 COL00067 <= 1
 ROW00049: + COL00020 - COL00058 + 5 COL00068 <= 1
 ROW00050: + COL00021 - COL00059 + 5 COL00069 <= 1
 ROW00051: + COL00022 - COL00060 + 5 COL00070 <= 1
 ROW00052: + COL00023 - COL00061 + 5 COL00071 <= 1
 ROW00053: + COL00024 - COL00062 + 5 COL00072 <= 1
 ROW00054: + COL00025 - COL00063 + 5 COL00073 <= 1
 ROW00055: + COL00026 - COL00064 + 5 COL00074 <= 1
 ROW00056: + COL00027 - COL00065 + 5 COL00075 <= 1
 ROW00057: + 0.844 COL00001 - COL00076 + 5 COL00086 = 0
 ROW00058: + 0.844 COL00002 - COL00077 + 5 COL00087 = 0
 ROW00059: + 0.844 COL00003 - COL00078 = 0
 ROW00060: + 0.844 COL00004 - COL00079 = 0
 ROW00061: + 0.844 COL00005 - COL00080 + 5 COL00088 = 0
 ROW00062: + 0.844 COL00006 - COL00081 + 5 COL00089 = 0
 ROW00063: + 0.844 COL00007 - COL00082 = 0
 ROW00064: + 0.844 COL00008 - COL00083 = 0
 ROW00065: + 0.844 COL00009 - COL00084 + 5 COL00090 = 0
 ROW00066: + COL00076 + COL00077 + COL00078 + COL00079 - COL00083 >= 0.1
 ROW00067: + COL00080 + COL00081 + 22.5 COL00082 + 36 COL00083 >= 1.1911
 ROW00068: + 0.2 COL00015 + 0.0657 COL00076 + 0.0013 COL00081
 - 0.2 COL00091 = -0.013
 ROW00069: + 0.2 COL00016 + 0.001 COL00080 - 0.2 COL00092 = -0.04
 ROW00070: + 0.17 COL00002 + 0.062 COL00003 + 0.2 COL00017
 + 0.16 COL00085 - 0.2 COL00093 = 0
 ROW00071: - 0.016 COL00002 - 0.007 COL00007 + 0.16 COL00077
 + 0.5 COL00087 - COL00104 - COL00105 - COL00106 - COL00107 - COL00108
 - COL00109 - COL00110 - COL00111 - COL00112 - COL00113 <= 0
 ROW00072: - 0.007 COL00002 - 0.005 COL00007 + 0.11 COL00077 - COL00084
 + 0.23 COL00087 <= 0
 ROW00073: - COL00003 + 0.3 COL00082 + COL00085 <= 0
 ROW00074: + 0.7 COL00086 - 0.3 COL00087 >= 0
 ROW00075: + COL00018 - COL00094 + 5 COL00104 <= 1.5
 ROW00076: + COL00019 - COL00095 + 5 COL00105 <= 1
 ROW00077: + COL00020 - COL00096 + 5 COL00106 <= 1
 ROW00078: + COL00021 - COL00097 + 5 COL00107 <= 1
 ROW00079: + COL00022 - COL00098 + 5 COL00108 <= 1
 ROW00080: + COL00023 - COL00099 + 5 COL00109 <= 1
 ROW00081: + COL00024 - COL00100 + 5 COL00110 <= 1
 ROW00082: + COL00025 - COL00101 + 5 COL00111 <= 1
 ROW00083: + COL00026 - COL00102 + 5 COL00112 <= 1
 ROW00084: + COL00027 - COL00103 + 5 COL00113 <= 1
 ROW00085: + 0.844 COL00001 - COL00114 + 5 COL00124 = 0
 ROW00086: + 0.844 COL00002 - COL00115 + 5 COL00125 = 0
 ROW00087: + 0.844 COL00003 - COL00116 = 0
 ROW00088: + 0.844 COL00004 - COL00117 = 0
 ROW00089: + 0.844 COL00005 - COL00118 + 5 COL00126 = 0
 ROW00090: + 0.844 COL00006 - COL00119 + 5 COL00127 = 0
 ROW00091: + 0.844 COL00007 - COL00120 = 0
 ROW00092: + 0.844 COL00008 - COL00121 = 0
 ROW00093: + 0.844 COL00009 - COL00122 + 5 COL00128 = 0
 ROW00094: + COL00114 + COL00115 + COL00116 + COL00117 - COL00121 >= 0.1
 ROW00095: + COL00118 + COL00119 + 22.5 COL00120 + 36 COL00121 >= 1.1911
 ROW00096: + 0.2 COL00015 + 0.0657 COL00114 + 0.0013 COL00119
 - 0.2 COL00129 = -0.013
 ROW00097: + 0.2 COL00016 + 0.001 COL00118 - 0.2 COL00130 = -0.04
 ROW00098: + 0.17 COL00002 + 0.062 COL00003 + 0.2 COL00017
 + 0.16 COL00123 - 0.2 COL00131 = 0
 ROW00099: - 0.016 COL00002 - 0.007 COL00007 + 0.16 COL00115
 + 0.5 COL00125 - COL00142 - COL00143 - COL00144 - COL00145 - COL00146
 - COL00147 - COL00148 - COL00149 - COL00150 - COL00151 <= 0
 ROW00100: - 0.007 COL00002 - 0.005 COL00007 + 0.11 COL00115 - COL00122
 + 0.23 COL00125 <= 0
 ROW00101: - COL00003 + 0.3 COL00120 + COL00123 <= 0
 ROW00102: + 0.7 COL00124 - 0.3 COL00125 >= 0
 ROW00103: + COL00018 - COL00132 + 5 COL00142 <= 1.5
 ROW00104: + COL00019 - COL00133 + 5 COL00143 <= 1
 ROW00105: + COL00020 - COL00134 + 5 COL00144 <= 1
 ROW00106: + COL00021 - COL00135 + 5 COL00145 <= 1
 ROW00107: + COL00022 - COL00136 + 5 COL00146 <= 1
 ROW00108: + COL00023 - COL00137 + 5 COL00147 <= 1
 ROW00109: + COL00024 - COL00138 + 5 COL00148 <= 1
 ROW00110: + COL00025 - COL00139 + 5 COL00149 <= 1
 ROW00111: + COL00026 - COL00140 + 5 COL00150 <= 1
 ROW00112: + COL00027 - COL00141 + 5 COL00151 <= 1
 ROW00113: + 0.844 COL00001 - COL00152 + 5 COL00162 = 0
 ROW00114: + 0.844 COL00002 - COL00153 + 5 COL00163 = 0
 ROW00115: + 0.844 COL00003 - COL00154 = 0
 ROW00116: + 0.844 COL00004 - COL00155 = 0
 ROW00117: + 0.844 COL00005 - COL00156 + 5 COL00164 = 0
 ROW00118: + 0.844 COL00006 - COL00157 + 5 COL00165 = 0
 ROW00119: + 0.844 COL00007 - COL00158 = 0
 ROW00120: + 0.844 COL00008 - COL00159 = 0
 ROW00121: + 0.844 COL00009 - COL00160 + 5 COL00166 = 0
 ROW00122: + COL00152 + COL00153 + COL00154 + COL00155 - COL00159 >= 0.1
 ROW00123: + COL00156 + COL00157 + 22.5 COL00158 + 36 COL00159 >= 1.1911
 ROW00124: + 0.2 COL00015 + 0.0657 COL00152 + 0.0013 COL00157
 - 0.2 COL00167 = -0.013
 ROW00125: + 0.2 COL00016 + 0.001 COL00156 - 0.2 COL00168 = -0.04
 ROW00126: + 0.17 COL00002 + 0.062 COL00003 + 0.2 COL00017
 + 0.16 COL00161 - 0.2 COL00169 = 0
 ROW00127: - 0.016 COL00002 - 0.007 COL00007 + 0.16 COL00153
 + 0.5 COL00163 - COL00180 - COL00181 - COL00182 - COL00183 - COL00184
 - COL00185 - COL00186 - COL00187 - COL00188 - COL00189 <= 0
 ROW00128: - 0.007 COL00002 - 0.005 COL00007 + 0.11 COL00153 - COL00160
 + 0.23 COL00163 <= 0
 ROW00129: - COL00003 + 0.3 COL00158 + COL00161 <= 0
 ROW00130: + 0.7 COL00162 - 0.3 COL00163 >= 0
 ROW00131: + COL00018 - COL00170 + 5 COL00180 <= 1.5
 ROW00132: + COL00019 - COL00171 + 5 COL00181 <= 1
 ROW00133: + COL00020 - COL00172 + 5 COL00182 <= 1
 ROW00134: + COL00021 - COL00173 + 5 COL00183 <= 1
 ROW00135: + COL00022 - COL00174 + 5 COL00184 <= 1
 ROW00136: + COL00023 - COL00175 + 5 COL00185 <= 1
 ROW00137: + COL00024 - COL00176 + 5 COL00186 <= 1
 ROW00138: + COL00025 - COL00177 + 5 COL00187 <= 1
 ROW00139: + COL00026 - COL00178 + 5 COL00188 <= 1
 ROW00140: + COL00027 - COL00179 + 5 COL00189 <= 1

End
